50, 6002
640, 490
512, 392
270, 120
54, 24
81, 36
576, 441
192, 147
64, 49
128, 98
448, 343
256, 196
576, 441
189, 84
384, 294
54, 24
128, 98
243, 108
192, 147
192, 147
320, 245
128, 98
108, 48
256, 196
216, 96
135, 60
27, 12
448, 343
320, 245
512, 392
162, 72
243, 108
128, 98
81, 36
162, 72
135, 60
640, 490
135, 60
243, 108
384, 294
64, 49
27, 12
256, 196
243, 108
162, 72
64, 49
384, 294
81, 36
243, 108
448, 343
192, 147
